; ./prepared/seahorn/./sv_comp_flat_small/ssh/s3_clnt.blast.01_true-unreach-call.i.cil.c.flat_000.smt2
(set-logic HORN)


(declare-fun |main_1| ( Int Int Int Int Int ) Bool)

(assert
  (forall ( (A Int) (B Int) (C Int) (D Int) (v_4 Int) ) 
    (=>
      (and
        (and true (= 0 v_4))
      )
      (main_1 v_4 A B C D)
    )
  )
)
(assert
  (forall ( (A Int) (B Int) (C Int) (D Int) (E Int) (F Int) (G Int) (H Int) (I Int) (J Int) (K Int) (L Int) (M Int) (N Int) (O Int) (P Int) (Q Int) (R Int) (S Int) (T Int) (U Int) (V Int) (W Int) (X Int) (Y Int) (Z Int) (A1 Int) (B1 Int) (C1 Int) (D1 Int) (E1 Int) (F1 Int) (G1 Int) (H1 Int) (I1 Int) (J1 Int) (K1 Int) (L1 Int) (M1 Int) (N1 Int) (O1 Int) (P1 Bool) (Q1 Int) (R1 Int) (S1 Bool) (T1 Bool) (U1 Int) (V1 Int) (W1 Int) (X1 Int) (Y1 Int) (Z1 Int) (A2 Int) (B2 Int) (v_54 Int) (v_55 Int) ) 
    (=>
      (and
        (main_1 v_54 L1 M1 N1 O1)
        (and (= 0 v_54)
     (= K1 J1)
     (= J1 (+ 176 A))
     (= I1 H1)
     (= H1 (+ 48 A))
     (= G1 F1)
     (= F1 (+ 64 A))
     (= E1 C1)
     (= D1 C1)
     (= C1 (+ 60 A))
     (= B1 A1)
     (= A1 (+ 4 A))
     (= Z A)
     (= Y X)
     (= X (+ 36 A))
     (= W V)
     (= V (+ 204 A))
     (= U T)
     (= T (+ 40 A))
     (= S R)
     (= R (+ 208 A))
     (= Q C)
     (= P O)
     (= O (+ 24 A))
     (= N (+ 1 M))
     (= L K)
     (= K (+ 28 A))
     (= J I)
     (= I (+ 92 A))
     (= H G)
     (= F E)
     (= E (+ 52 A))
     (= D C)
     (= C (+ 84 A))
     (or (= X1 0) (not T1) (not P1))
     (or (= W1 12292) (not T1) (not P1))
     (or (= V1 Q1) (not T1) (not P1))
     (or (= U1 R1) (not T1) (not P1))
     (or (= B2 X1) (not T1) (not P1))
     (or (= A2 W1) (not T1) (not P1))
     (or (= Z1 V1) (not T1) (not P1))
     (or (= Y1 U1) (not T1) (not P1))
     (or (not S1) (and P1 T1))
     (= S1 true)
     (= R1 B)
     (= 1 v_55))
      )
      (main_1 v_55 Y1 Z1 A2 B2)
    )
  )
)
(assert
  (forall ( (A Int) (B Bool) (C Int) (D Bool) (E Int) (F Int) (G Bool) (H Bool) (I Bool) (J Int) (K Bool) (L Int) (M Bool) (N Int) (O Int) (P Int) (Q Int) (R Int) (S Bool) (T Int) (U Bool) (V Int) (W Bool) (X Int) (Y Int) (Z Bool) (A1 Bool) (B1 Int) (C1 Bool) (D1 Bool) (E1 Bool) (F1 Bool) (G1 Int) (H1 Bool) (I1 Bool) (J1 Int) (K1 Bool) (L1 Int) (M1 Bool) (N1 Bool) (O1 Bool) (P1 Int) (Q1 Bool) (R1 Bool) (S1 Bool) (T1 Int) (U1 Bool) (V1 Bool) (W1 Int) (X1 Int) (Y1 Int) (Z1 Int) (A2 Bool) (B2 Int) (C2 Int) (D2 Int) (E2 Bool) (F2 Int) (G2 Bool) (H2 Bool) (I2 Int) (J2 Bool) (K2 Int) (L2 Bool) (M2 Bool) (N2 Bool) (O2 Bool) (P2 Int) (Q2 Bool) (R2 Int) (S2 Bool) (T2 Bool) (U2 Int) (V2 Int) (W2 Bool) (X2 Int) (Y2 Bool) (Z2 Bool) (A3 Bool) (B3 Bool) (C3 Int) (D3 Bool) (E3 Int) (F3 Bool) (G3 Int) (H3 Int) (I3 Int) (J3 Bool) (K3 Int) (L3 Int) (M3 Bool) (N3 Int) (O3 Bool) (P3 Bool) (Q3 Int) (R3 Bool) (S3 Int) (T3 Int) (U3 Bool) (V3 Int) (W3 Bool) (X3 Int) (Y3 Bool) (Z3 Int) (A4 Int) (B4 Int) (C4 Int) (D4 Bool) (E4 Int) (F4 Int) (G4 Int) (H4 Bool) (I4 Int) (J4 Bool) (K4 Bool) (L4 Bool) (M4 Int) (N4 Int) (O4 Int) (P4 Bool) (Q4 Int) (R4 Int) (S4 Bool) (T4 Int) (U4 Bool) (V4 Int) (W4 Int) (X4 Bool) (Y4 Int) (Z4 Bool) (A5 Bool) (B5 Int) (C5 Int) (D5 Int) (E5 Int) (F5 Int) (G5 Bool) (H5 Bool) (I5 Int) (J5 Int) (K5 Int) (L5 Int) (M5 Bool) (N5 Bool) (O5 Bool) (P5 Bool) (Q5 Bool) (R5 Bool) (S5 Bool) (T5 Bool) (U5 Int) (V5 Int) (W5 Int) (X5 Int) (Y5 Bool) (Z5 Int) (A6 Int) (B6 Int) (C6 Int) (D6 Int) (E6 Int) (F6 Int) (G6 Int) (H6 Bool) (I6 Bool) (J6 Bool) (K6 Bool) (L6 Bool) (M6 Bool) (N6 Bool) (O6 Bool) (P6 Bool) (Q6 Bool) (R6 Bool) (S6 Bool) (T6 Bool) (U6 Bool) (V6 Bool) (W6 Bool) (X6 Bool) (Y6 Bool) (Z6 Bool) (A7 Bool) (B7 Bool) (C7 Bool) (D7 Bool) (E7 Bool) (F7 Int) (G7 Bool) (H7 Bool) (I7 Bool) (J7 Bool) (K7 Int) (L7 Int) (M7 Bool) (N7 Bool) (O7 Bool) (P7 Bool) (Q7 Bool) (R7 Bool) (S7 Bool) (T7 Bool) (U7 Bool) (V7 Bool) (W7 Int) (X7 Int) (Y7 Int) (Z7 Bool) (A8 Bool) (B8 Bool) (C8 Bool) (D8 Bool) (E8 Bool) (F8 Bool) (G8 Bool) (H8 Int) (I8 Int) (J8 Bool) (K8 Bool) (L8 Bool) (M8 Bool) (N8 Bool) (O8 Bool) (P8 Bool) (Q8 Bool) (R8 Bool) (S8 Bool) (T8 Bool) (U8 Bool) (V8 Bool) (W8 Bool) (X8 Bool) (Y8 Bool) (Z8 Bool) (A9 Bool) (B9 Bool) (C9 Bool) (D9 Bool) (E9 Bool) (F9 Bool) (G9 Bool) (H9 Int) (I9 Int) (J9 Bool) (K9 Bool) (L9 Bool) (M9 Bool) (N9 Bool) (O9 Bool) (P9 Bool) (Q9 Bool) (R9 Bool) (S9 Bool) (T9 Bool) (U9 Bool) (V9 Bool) (W9 Bool) (X9 Int) (Y9 Int) (Z9 Bool) (A10 Bool) (B10 Bool) (C10 Bool) (D10 Int) (E10 Bool) (F10 Bool) (G10 Bool) (H10 Bool) (I10 Bool) (J10 Bool) (K10 Bool) (L10 Bool) (M10 Int) (N10 Bool) (O10 Bool) (P10 Bool) (Q10 Bool) (R10 Bool) (S10 Bool) (T10 Int) (U10 Bool) (V10 Bool) (W10 Bool) (X10 Int) (Y10 Int) (Z10 Int) (A11 Int) (B11 Bool) (C11 Bool) (D11 Bool) (E11 Bool) (F11 Bool) (G11 Bool) (H11 Bool) (I11 Bool) (J11 Int) (K11 Int) (L11 Bool) (M11 Bool) (N11 Bool) (O11 Bool) (P11 Int) (Q11 Bool) (R11 Bool) (S11 Bool) (T11 Bool) (U11 Bool) (V11 Bool) (W11 Bool) (X11 Bool) (Y11 Bool) (Z11 Bool) (A12 Bool) (B12 Bool) (C12 Bool) (D12 Bool) (E12 Bool) (F12 Bool) (G12 Bool) (H12 Bool) (I12 Bool) (J12 Bool) (K12 Bool) (L12 Bool) (M12 Bool) (N12 Bool) (O12 Bool) (P12 Bool) (Q12 Bool) (R12 Bool) (S12 Bool) (T12 Bool) (U12 Bool) (V12 Int) (W12 Bool) (X12 Bool) (Y12 Bool) (Z12 Bool) (A13 Bool) (B13 Bool) (C13 Bool) (D13 Bool) (E13 Bool) (F13 Bool) (G13 Bool) (H13 Bool) (I13 Bool) (J13 Bool) (K13 Bool) (L13 Bool) (M13 Bool) (N13 Bool) (O13 Bool) (P13 Bool) (Q13 Bool) (R13 Bool) (S13 Bool) (T13 Bool) (U13 Bool) (V13 Bool) (W13 Int) (X13 Int) (Y13 Int) (Z13 Int) (A14 Int) (B14 Int) (C14 Int) (D14 Int) (E14 Int) (F14 Int) (G14 Int) (H14 Int) (I14 Int) (J14 Int) (K14 Int) (L14 Int) (M14 Int) (N14 Int) (O14 Int) (P14 Int) (Q14 Int) (R14 Int) (S14 Int) (T14 Int) (U14 Int) (V14 Int) (W14 Int) (X14 Int) (Y14 Int) (Z14 Int) (A15 Int) (B15 Int) (C15 Int) (D15 Int) (E15 Int) (F15 Int) (G15 Int) (H15 Int) (I15 Int) (J15 Int) (K15 Int) (L15 Int) (M15 Int) (N15 Int) (O15 Int) (P15 Int) (Q15 Int) (R15 Int) (S15 Int) (T15 Int) (U15 Int) (V15 Int) (W15 Int) (X15 Int) (Y15 Int) (Z15 Int) (A16 Int) (B16 Bool) (C16 Bool) (D16 Bool) (E16 Bool) (F16 Bool) (G16 Bool) (H16 Bool) (I16 Bool) (J16 Bool) (K16 Bool) (v_427 Int) (v_428 Int) ) 
    (=>
      (and
        (main_1 v_427 U5 V5 W5 X5)
        (let ((a!1 (or (not D16) (not (= (<= 1 A) B))))
      (a!2 (or (not Q12) (not (= (<= 1 Y) Z))))
      (a!3 (or (not O12) (not (= (<= B1 0) C1))))
      (a!4 (or (not Q11) (not (= (<= 4099 W5) F1))))
      (a!5 (or (not N11) (not (= (<= 1 G1) H1))))
      (a!6 (or (not H11) (not (= (<= 1 L1) M1))))
      (a!7 (or (not D11) (not (= (<= 4384 W5) R1))))
      (a!8 (or (not B11) (not (= (<= 4368 W5) S1))))
      (a!9 (or (not R10) (not (= (<= 1 T1) V1))))
      (a!10 (or (not K10) (not (= (<= 1 F2) G2))))
      (a!11 (or (not G10) (not (= (<= 4416 W5) M2))))
      (a!12 (or (not E10) (not (= (<= 1 D10) N2))))
      (a!13 (or (not V9) (not (= (<= 1 R2) S2))))
      (a!14 (or (not R9) (not (= (<= 4448 W5) Z2))))
      (a!15 (or (not P9) (not (= (<= 4432 W5) A3))))
      (a!16 (or (not N9) (not (= (<= 4400 W5) B3))))
      (a!17 (or (not L9) (not (= (<= 1 C3) D3))))
      (a!18 (or (not Y8) (not (= (<= 1 I3) J3))))
      (a!19 (or (not U8) (not (= (<= 4480 W5) P3))))
      (a!20 (or (not S8) (not (= (<= 1 Q3) R3))))
      (a!21 (or (not F8) (not (= (<= 1 C4) D4))))
      (a!22 (or (not B8) (not (= (<= 4512 W5) K4))))
      (a!23 (or (not Z7) (not (= (<= 4496 W5) L4))))
      (a!24 (or (not I7) (not (= (<= 1 R4) S4))))
      (a!25 (or (not D7) (not (= (<= 1 Y4) Z4))))
      (a!26 (or (not Z6) (not (= (<= 4560 W5) H5))))
      (a!27 (or (not P6) (not (= (<= 20480 W5) P5))))
      (a!28 (or (not N6) (not (= (<= 16384 W5) Q5))))
      (a!29 (or (not L6) (not (= (<= 12292 W5) R5))))
      (a!30 (or (not J6) (not (= (<= 4528 W5) S5))))
      (a!31 (or (not H6) (not (= (<= 4464 W5) T5)))))
  (and (= 1 v_427)
       (or (and S12 I13)
           (and D7 J13)
           (and S7 K13)
           (and N8 L13)
           (and S8 M13)
           (and E9 N13)
           (and L9 O13)
           (and V9 P13)
           (and E10 Q13)
           (and K10 R13)
           (and U10 S13)
           (and H11 T13)
           (and N11 U13)
           (and E13 V13)
           (not H13))
       (or (and R6 X12)
           (and T6 Y12)
           (and S11 Z12)
           (and U11 A13)
           (and X6 B13)
           (not W12))
       (or (and D16 G16) (and B16 H16) (and H13 I16) (not F16))
       (or (and Q7 T7) (and O7 U7) (and M7 V7) (not S7))
       (or (= G6 C6) (not F16) (not K16))
       (or (= F6 B6) (not F16) (not K16))
       (or (= E6 A6) (not F16) (not K16))
       (or (= D6 Z5) (not F16) (not K16))
       (or (= C6 E5) (not F16) (not K16))
       (or (= B6 C5) (not F16) (not K16))
       (or (= A6 B5) (not F16) (not K16))
       (or (= Z5 A16) (not F16) (not K16))
       (or (and C13 F13) (and W12 G13) (not E13))
       (or (= Y15 0) (not E13) (not V13))
       (or (= E5 Z15) (not E13) (not V13))
       (or (= D5 Y15) (not E13) (not V13))
       (or (= C5 X15) (not E13) (not V13))
       (or (= B5 W15) (not E13) (not V13))
       (or (= Z15 X5) (not E13) (not V13))
       (or (= X15 4368) (not E13) (not V13))
       (or (= W15 V5) (not E13) (not V13))
       (or (and Q12 T12) (and O12 U12) (not S12))
       (or (= Z13 X5) (not S12) (not I13))
       (or (= Y13 0) (not S12) (not I13))
       (or (= X13 V12) (not S12) (not I13))
       (or (= W13 V5) (not S12) (not I13))
       (or (= E5 Z13) (not S12) (not I13))
       (or (= D5 Y13) (not S12) (not I13))
       (or (= C5 X13) (not S12) (not I13))
       (or (= B5 W13) (not S12) (not I13))
       (or (= E5 V15) (not N11) (not U13))
       (or (= D5 U15) (not N11) (not U13))
       (or (= C5 T15) (not N11) (not U13))
       (or (= B5 S15) (not N11) (not U13))
       (or (= V15 P11) (not N11) (not U13))
       (or (= U15 0) (not N11) (not U13))
       (or (= T15 4384) (not N11) (not U13))
       (or (= S15 V5) (not N11) (not U13))
       (or (= E5 R15) (not H11) (not T13))
       (or (= D5 Q15) (not H11) (not T13))
       (or (= C5 P15) (not H11) (not T13))
       (or (= B5 O15) (not H11) (not T13))
       (or (= R15 J11) (not H11) (not T13))
       (or (= Q15 0) (not H11) (not T13))
       (or (= P15 K11) (not H11) (not T13))
       (or (= O15 V5) (not H11) (not T13))
       (or (and R10 V10) (and P10 W10) (not U10))
       (or (= E5 N15) (not U10) (not S13))
       (or (= D5 M15) (not U10) (not S13))
       (or (= C5 L15) (not U10) (not S13))
       (or (= B5 K15) (not U10) (not S13))
       (or (= N15 C2) (not U10) (not S13))
       (or (= M15 B2) (not U10) (not S13))
       (or (= L15 4416) (not U10) (not S13))
       (or (= K15 V5) (not U10) (not S13))
       (or (= Y10 T10) (not R10) (not V10))
       (or (= X10 0) (not R10) (not V10))
       (or (= C2 Y10) (not R10) (not V10))
       (or (= B2 X10) (not R10) (not V10))
       (or (= A11 X5) (not P10) (not W10))
       (or (= Z10 1) (not P10) (not W10))
       (or (= C2 A11) (not P10) (not W10))
       (or (= B2 Z10) (not P10) (not W10))
       (or (= E5 J15) (not K10) (not R13))
       (or (= D5 I15) (not K10) (not R13))
       (or (= C5 H15) (not K10) (not R13))
       (or (= B5 G15) (not K10) (not R13))
       (or (= J15 M10) (not K10) (not R13))
       (or (= I15 0) (not K10) (not R13))
       (or (= H15 4432) (not K10) (not R13))
       (or (= G15 V5) (not K10) (not R13))
       (or (= E5 F15) (not E10) (not Q13))
       (or (= D5 E15) (not E10) (not Q13))
       (or (= C5 D15) (not E10) (not Q13))
       (or (= B5 C15) (not E10) (not Q13))
       (or (= F15 X5) (not E10) (not Q13))
       (or (= E15 0) (not E10) (not Q13))
       (or (= D15 4448) (not E10) (not Q13))
       (or (= C15 V5) (not E10) (not Q13))
       (or (= E5 B15) (not V9) (not P13))
       (or (= D5 A15) (not V9) (not P13))
       (or (= C5 Z14) (not V9) (not P13))
       (or (= B5 Y14) (not V9) (not P13))
       (or (= B15 X9) (not V9) (not P13))
       (or (= A15 0) (not V9) (not P13))
       (or (= Z14 Y9) (not V9) (not P13))
       (or (= Y14 V5) (not V9) (not P13))
       (or (= E5 X14) (not L9) (not O13))
       (or (= D5 W14) (not L9) (not O13))
       (or (= C5 V14) (not L9) (not O13))
       (or (= B5 U14) (not L9) (not O13))
       (or (= X14 X5) (not L9) (not O13))
       (or (= W14 0) (not L9) (not O13))
       (or (= V14 4480) (not L9) (not O13))
       (or (= U14 V5) (not L9) (not O13))
       (or (and A9 F9) (and C9 G9) (not E9))
       (or (= E5 T14) (not E9) (not N13))
       (or (= D5 S14) (not E9) (not N13))
       (or (= C5 R14) (not E9) (not N13))
       (or (= B5 Q14) (not E9) (not N13))
       (or (= T14 X5) (not E9) (not N13))
       (or (= S14 0) (not E9) (not N13))
       (or (= R14 H3) (not E9) (not N13))
       (or (= Q14 V5) (not E9) (not N13))
       (or (= I9 4496) (not C9) (not G9))
       (or (= H3 I9) (not C9) (not G9))
       (or (= H9 4512) (not A9) (not F9))
       (or (= H3 H9) (not A9) (not F9))
       (or (= E5 P14) (not S8) (not M13))
       (or (= D5 O14) (not S8) (not M13))
       (or (= C5 N14) (not S8) (not M13))
       (or (= B5 M14) (not S8) (not M13))
       (or (= P14 X5) (not S8) (not M13))
       (or (= O14 0) (not S8) (not M13))
       (or (= N14 4512) (not S8) (not M13))
       (or (= M14 V5) (not S8) (not M13))
       (or (and J8 O8) (and L8 P8) (not N8))
       (or (= I14 V5) (not N8) (not L13))
       (or (= E5 L14) (not N8) (not L13))
       (or (= D5 K14) (not N8) (not L13))
       (or (= C5 J14) (not N8) (not L13))
       (or (= B5 I14) (not N8) (not L13))
       (or (= L14 X5) (not N8) (not L13))
       (or (= K14 0) (not N8) (not L13))
       (or (= J14 4528) (not N8) (not L13))
       (or (= H14 X5) (not S7) (not K13))
       (or (= G14 0) (not S7) (not K13))
       (or (= F14 Q4) (not S7) (not K13))
       (or (= E14 K7) (not S7) (not K13))
       (or (= E5 H14) (not S7) (not K13))
       (or (= D5 G14) (not S7) (not K13))
       (or (= C5 F14) (not S7) (not K13))
       (or (= B5 E14) (not S7) (not K13))
       (or (= W7 4352) (not Q7) (not T7))
       (or (= Q4 W7) (not Q7) (not T7))
       (or (= X7 3) (not O7) (not U7))
       (or (= Q4 X7) (not O7) (not U7))
       (or (= Y7 4352) (not M7) (not V7))
       (or (= Q4 Y7) (not M7) (not V7))
       (or (= D14 X5) (not D7) (not J13))
       (or (= C14 0) (not D7) (not J13))
       (or (= B14 F7) (not D7) (not J13))
       (or (= A14 V5) (not D7) (not J13))
       (or (= E5 D14) (not D7) (not J13))
       (or (= D5 C14) (not D7) (not J13))
       (or (= C5 B14) (not D7) (not J13))
       (or (= B5 A14) (not D7) (not J13))
       (or T5 (not H6) (not O9))
       (or (not T5) (not H6) (not K6))
       (or S5 (not J6) (not A8))
       (or (not S5) (not J6) (not M6))
       (or R5 (not L6) (not A7))
       (or (not R5) (not L6) (not O6))
       (or Q5 (not N6) (not W6))
       (or (not Q5) (not N6) (not Q6))
       (or P5 (not P6) (not U6))
       (or (not P5) (not P6) (not S6))
       (or O5 (not R6) (not X12))
       (or (not O5) (not R6) (not X11))
       (or N5 (not T6) (not Y12))
       (or (not N5) (not T6) (not Y11))
       (or (not M5) (not V6) (not Z11))
       (or M5 (not V6) (not Y6))
       (or H5 (not Z6) (not H7))
       (or (not H5) (not Z6) (not C7))
       (or (not G5) (not B7) (not A12))
       (or G5 (not B7) (not E7))
       (or (not X4) (not G7) (not B12))
       (or X4 (not G7) (not J7))
       (or U4 (not I7) (not R7))
       (or (not U4) (not I7) (not N7))
       (or P4 (not M7) (not V7))
       (or (not P4) (not M7) (not P7))
       (or L4 (not Z7) (not V8))
       (or (not L4) (not Z7) (not C8))
       (or K4 (not B8) (not R8))
       (or (not K4) (not B8) (not E8))
       (or (not J4) (not D8) (not C12))
       (or J4 (not D8) (not G8))
       (or H4 (not F8) (not M8))
       (or (not H4) (not F8) (not K8))
       (or (not U3) (not Q8) (not D12))
       (or U3 (not Q8) (not T8))
       (or P3 (not U8) (not K9))
       (or (not P3) (not U8) (not X8))
       (or (not O3) (not W8) (not E12))
       (or O3 (not W8) (not Z8))
       (or M3 (not Y8) (not D9))
       (or (not M3) (not Y8) (not B9))
       (or (not F3) (not J9) (not F12))
       (or F3 (not J9) (not M9))
       (or B3 (not N9) (not C11))
       (or (not B3) (not N9) (not Q9))
       (or A3 (not P9) (not H10))
       (or (not A3) (not P9) (not S9))
       (or Z2 (not R9) (not A10))
       (or (not Z2) (not R9) (not U9))
       (or (not Y2) (not T9) (not G12))
       (or Y2 (not T9) (not W9))
       (or (not Q2) (not Z9) (not H12))
       (or Q2 (not Z9) (not C10))
       (or (not O2) (not B10) (not F10))
       (or M2 (not G10) (not O10))
       (or (not M2) (not G10) (not J10))
       (or (not L2) (not I10) (not I12))
       (or L2 (not I10) (not L10))
       (or (not E2) (not N10) (not J12))
       (or E2 (not N10) (not Q10))
       (or (not A2) (not P10) (not W10))
       (or A2 (not P10) (not S10))
       (or S1 (not B11) (not R11))
       (or (not S1) (not B11) (not E11))
       (or R1 (not D11) (not M11))
       (or (not R1) (not D11) (not G11))
       (or (not Q1) (not F11) (not K12))
       (or Q1 (not F11) (not I11))
       (or (not K1) (not L11) (not L12))
       (or K1 (not L11) (not O11))
       (or F1 (not Q11) (not V11))
       (or (not F1) (not Q11) (not T11))
       (or E1 (not S11) (not Z12))
       (or (not E1) (not S11) (not M12))
       (or D1 (not U11) (not A13))
       (or (not D1) (not U11) (not N12))
       (or (not C1) (not O12) (not U12))
       (or C1 (not O12) (not R12))
       (or (not W) (not W12) (not G13))
       (or W (not W12) (not D13))
       (or (not I) (not H13) (not I16))
       (or I (not H13) (not C16))
       (or D (not B16) (not H16))
       (or (not D) (not B16) (not E16))
       (or (not J16) (and F16 K16))
       a!1
       (or (not D16) (and B16 E16))
       (or (not H13) (= I (and G H)))
       (or (not H13) (= H (= D5 0)))
       (or (not H13) (= G (= F 0)))
       (or (not H13) (= E (+ 852 A16)))
       (or (not E13) (= M (= L 0)))
       (or (not E13) (= K (= J 0)))
       (or (not E13) (= Q (+ 1 P)))
       (or (not E13) (= O (+ 60 N)))
       (or (not C13) (= S (= R 0)))
       (or (not C13) (and W12 D13))
       (or (not W12) (= W (= V 0)))
       (or (not W12) (= U (= T 768)))
       (or (not S12) (= X (+ 848 U5)))
       a!2
       (or (not Q12) (and O12 R12))
       a!3
       (or (not O12) (= A1 (= W5 4352)))
       (or (not O12) (and W11 P12))
       (or (not U11) (= D1 (= W5 4096)))
       (or (not U11) (and Q11 V11))
       (or (not S11) (= E1 (= W5 4099)))
       (or (not S11) (and Q11 T11))
       a!4
       (or (not Q11) (and B11 R11))
       a!5
       (or (not N11) (= I1 (= X5 0)))
       (or (not N11) (= P11 (ite I1 1 X5)))
       (or (not N11) (and L11 O11))
       (or (not L11) (= K1 (<= J1 1)))
       (or (not L11) (= J1 (+ (- 4368) W5)))
       (or (not L11) (and D11 M11))
       a!6
       (or (not H11) (= O1 (= V5 0)))
       (or (not H11) (= N1 (= X5 1)))
       (or (not H11) (= K11 (ite O1 4400 4560)))
       (or (not H11) (= J11 (ite N1 2 X5)))
       (or (not H11) (and F11 I11))
       (or (not F11) (= Q1 (<= P1 1)))
       (or (not F11) (= P1 (+ (- 4384) W5)))
       (or (not F11) (and D11 G11))
       a!7
       (or (not D11) (and B11 E11))
       a!8
       (or (not B11) (and N9 C11))
       a!9
       (or (not R10) (= U1 (= X5 2)))
       (or (not R10) (= T10 (ite U1 3 X5)))
       (or (not R10) (and P10 S10))
       (or (not P10) (= A2 (= Z1 0)))
       (or (not P10) (= Y1 (+ 12 X1)))
       (or (not P10) (= W1 (+ 840 U5)))
       (or (not P10) (and N10 Q10))
       (or (not N10) (= E2 (<= D2 1)))
       (or (not N10) (= D2 (+ (- 4400) W5)))
       (or (not N10) (and G10 O10))
       a!10
       (or (not K10) (= J2 (= I2 0)))
       (or (not K10) (= H2 (= X5 3)))
       (or (not K10) (= M10 (ite H2 4 X5)))
       (or (not K10) (and I10 L10))
       (or (not I10) (= L2 (<= K2 1)))
       (or (not I10) (= K2 (+ (- 4416) W5)))
       (or (not I10) (and G10 J10))
       a!11
       (or (not G10) (and P9 H10))
       a!12
       (or (not E10) (and B10 F10))
       (or (not B10) (= O2 (= X5 5)))
       (or (not B10) (and Z9 C10))
       (or (not Z9) (= Q2 (<= P2 1)))
       (or (not Z9) (= P2 (+ (- 4432) W5)))
       (or (not Z9) (and R9 A10))
       a!13
       (or (not V9) (= W2 (= V2 0)))
       (or (not V9) (= T2 (= X5 4)))
       (or (not V9) (= Y9 (ite W2 4480 4464)))
       (or (not V9) (= X9 (ite T2 5 X5)))
       (or (not V9) (= U2 (+ 856 U5)))
       (or (not V9) (and T9 W9))
       (or (not T9) (= Y2 (<= X2 1)))
       (or (not T9) (= X2 (+ (- 4448) W5)))
       (or (not T9) (and R9 U9))
       a!14
       (or (not R9) (and P9 S9))
       a!15
       (or (not P9) (and N9 Q9))
       a!16
       (or (not N9) (and H6 O9))
       a!17
       (or (not L9) (and J9 M9))
       (or (not J9) (= F3 (<= E3 3)))
       (or (not J9) (= E3 (+ (- 4464) W5)))
       (or (not J9) (and U8 K9))
       (or (not C9) (and Y8 D9))
       (or (not A9) (= G3 (+ 572 U5)))
       (or (not A9) (and Y8 B9))
       a!18
       (or (not Y8) (= M3 (= L3 1)))
       (or (not Y8) (= K3 (+ 856 U5)))
       (or (not Y8) (and W8 Z8))
       (or (not W8) (= O3 (<= N3 1)))
       (or (not W8) (= N3 (+ (- 4480) W5)))
       (or (not W8) (and U8 X8))
       a!19
       (or (not U8) (and Z7 V8))
       a!20
       (or (not S8) (= S3 (+ 572 U5)))
       (or (not S8) (and Q8 T8))
       (or (not Q8) (= U3 (<= T3 1)))
       (or (not Q8) (= T3 (+ (- 4496) W5)))
       (or (not Q8) (and B8 R8))
       (or (not N8) (= Y3 (= X3 0)))
       (or (not N8) (= W3 (= V3 0)))
       (or (not L8) (= Z3 (+ 168 H8)))
       (or (not L8) (and F8 M8))
       (or (not J8) (= B4 (+ 168 H8)))
       (or (not J8) (= A4 I8))
       (or (not J8) (and F8 K8))
       a!21
       (or (not F8) (= H4 (= I8 0)))
       (or (not F8) (= G4 (+ 896 U5)))
       (or (not F8) (= F4 (+ 172 H8)))
       (or (not F8) (= E4 (+ 840 U5)))
       (or (not F8) (and D8 G8))
       (or (not D8) (= J4 (<= I4 1)))
       (or (not D8) (= I4 (+ (- 4512) W5)))
       (or (not D8) (and B8 E8))
       a!22
       (or (not B8) (and Z7 C8))
       a!23
       (or (not Z7) (and J6 A8))
       (or (not Q7) (and I7 R7))
       (or (not O7) (= M4 (+ 4 L7)))
       (or (not O7) (and M7 P7))
       (or (not M7) (= P4 (= O4 0)))
       (or (not M7) (= N4 L7))
       (or (not M7) (and I7 N7))
       a!24
       (or (not I7) (= U4 (= K7 0)))
       (or (not I7) (= V4 (+ 848 L7)))
       (or (not I7) (= T4 U5))
       (or (not I7) (and G7 J7))
       (or (not G7) (= X4 (<= W4 1)))
       (or (not G7) (= W4 (+ (- 4528) W5)))
       (or (not G7) (and Z6 H7))
       a!25
       (or (not D7) (= A5 (= V5 0)))
       (or (not D7) (= F7 (ite A5 3 4512)))
       (or (not D7) (and B7 E7))
       (or (not B7) (= G5 (<= F5 1)))
       (or (not B7) (= F5 (+ (- 4560) W5)))
       (or (not B7) (and Z6 C7))
       a!26
       (or (not Z6) (and L6 A7))
       (or (not X6) (= L5 (+ 1 K5)))
       (or (not X6) (= J5 (+ 64 I5)))
       (or (not X6) (and V6 Y6))
       (or (not V6) (= M5 (= W5 12292)))
       (or (not V6) (and N6 W6))
       (or (not T6) (= N5 (= W5 16384)))
       (or (not T6) (and P6 U6))
       (or (not R6) (= O5 (= W5 20480)))
       (or (not R6) (and P6 S6))
       a!27
       (or (not P6) (and N6 Q6))
       a!28
       (or (not N6) (and L6 O6))
       a!29
       (or (not L6) (and J6 M6))
       a!30
       (or (not J6) (and H6 K6))
       a!31
       (or (not H6) (and Y5 I6))
       (or (not Z4) (not D7))
       (or (not S4) (not I7))
       (or (not D4) (not F8))
       (or (not Y3) (not N8))
       (or (not W3) (not N8))
       (or (not R3) (not S8))
       (or (not J3) (not Y8))
       (or (not D3) (not L9))
       (or (not S2) (not V9))
       (or (not N2) (not E10))
       (or (not J2) (not K10))
       (or (not G2) (not K10))
       (or (not V1) (not R10))
       (or (not M1) (not H11))
       (or (not H1) (not N11))
       (or A1 (not O12))
       (or (not Z) (not Q12))
       (or U (not W12))
       (or (not S) (not C13))
       (or (not M) (not E13))
       (or (not K) (not E13))
       (or (not B) (not D16))
       (or (not B16) (= D (= C 0)))
       (or (not B16) (and C16 H13))
       (= J16 true)
       (or (and R6 X11)
           (and T6 Y11)
           (and V6 Z11)
           (and B7 A12)
           (and G7 B12)
           (and D8 C12)
           (and Q8 D12)
           (and W8 E12)
           (and J9 F12)
           (and T9 G12)
           (and Z9 H12)
           (and I10 I12)
           (and N10 J12)
           (and F11 K12)
           (and L11 L12)
           (and S11 M12)
           (and U11 N12)
           (not W11))
       (= 1 v_428)))
      )
      (main_1 v_428 D6 E6 F6 G6)
    )
  )
)
(assert
  (forall ( (A Bool) (B Int) (C Bool) (D Bool) (E Bool) (F Bool) (G Bool) (H Int) (I Int) (J Int) (K Int) (L Bool) (M Bool) (N Bool) (O Bool) (P Bool) (Q Bool) (R Bool) (S Bool) (T Bool) (U Bool) (V Bool) (W Bool) (X Bool) (Y Bool) (Z Bool) (v_26 Int) (v_27 Int) ) 
    (=>
      (and
        (main_1 v_26 H I J K)
        (let ((a!1 (or (not O) (not (= (<= 4400 J) F))))
      (a!2 (or (not M) (not (= (<= 4464 J) G))))
      (a!3 (or (not S) (not (= (<= 4448 J) D))))
      (a!4 (or (not Q) (not (= (<= 4432 J) E)))))
  (and (= 1 v_26)
       (or A (not Z) (not W))
       (or C (not U) (not X))
       (or D (not S) (not V))
       (or (not F) (not R) (not O))
       (or (not E) (not Q) (not T))
       a!1
       (or (not O) (and M P))
       a!2
       (or (not M) (and N L))
       (or (not Y) (and W Z))
       (or (not W) (= A (= K 5)))
       (or (not W) (and U X))
       (or (not U) (= C (<= B 1)))
       (or (not U) (= B (+ (- 4432) J)))
       (or (not U) (and S V))
       a!3
       (or (not S) (and Q T))
       a!4
       (or (not Q) (and R O))
       (= Y true)
       (or G (not M) (not P))
       (= 2 v_27)))
      )
      (main_1 v_27 H I J K)
    )
  )
)
(assert
  (forall ( (A Int) (B Int) (C Int) (D Int) (v_4 Int) ) 
    (=>
      (and
        (main_1 v_4 A B C D)
        (= 2 v_4)
      )
      false
    )
  )
)

(check-sat)
(exit)
